c File: flat175_3_0.col
c
c SOURCE: Joseph Culberson (joe@cs.ualberta.ca)
c DESCRIPTION: Quasi-random coloring problem
c              generated with flatness = 0
c                             probability = 0.041
c                             known coloring = 3
c                             random seed = 1082
c              Creation Date:  Wed Feb 24 10:55:31 1999
c Maximum degree = 8 Minimum degree = 0
c COLOR VERIFICATION: Using the permuted order
c under simple greedy yields the specified
c coloring number
c Color = 3 specified partitions = 3
c p edge 175 417
c cnf created by edge2cnf
p cnf 525 1951
-1 -2 0
-1 -3 0
-2 -3 0
1 2 3 0
-4 -5 0
-4 -6 0
-5 -6 0
4 5 6 0
-7 -8 0
-7 -9 0
-8 -9 0
7 8 9 0
-10 -11 0
-10 -12 0
-11 -12 0
10 11 12 0
-13 -14 0
-13 -15 0
-14 -15 0
13 14 15 0
-16 -17 0
-16 -18 0
-17 -18 0
16 17 18 0
-19 -20 0
-19 -21 0
-20 -21 0
19 20 21 0
-22 -23 0
-22 -24 0
-23 -24 0
22 23 24 0
-25 -26 0
-25 -27 0
-26 -27 0
25 26 27 0
-28 -29 0
-28 -30 0
-29 -30 0
28 29 30 0
-31 -32 0
-31 -33 0
-32 -33 0
31 32 33 0
-34 -35 0
-34 -36 0
-35 -36 0
34 35 36 0
-37 -38 0
-37 -39 0
-38 -39 0
37 38 39 0
-40 -41 0
-40 -42 0
-41 -42 0
40 41 42 0
-43 -44 0
-43 -45 0
-44 -45 0
43 44 45 0
-46 -47 0
-46 -48 0
-47 -48 0
46 47 48 0
-49 -50 0
-49 -51 0
-50 -51 0
49 50 51 0
-52 -53 0
-52 -54 0
-53 -54 0
52 53 54 0
-55 -56 0
-55 -57 0
-56 -57 0
55 56 57 0
-58 -59 0
-58 -60 0
-59 -60 0
58 59 60 0
-61 -62 0
-61 -63 0
-62 -63 0
61 62 63 0
-64 -65 0
-64 -66 0
-65 -66 0
64 65 66 0
-67 -68 0
-67 -69 0
-68 -69 0
67 68 69 0
-70 -71 0
-70 -72 0
-71 -72 0
70 71 72 0
-73 -74 0
-73 -75 0
-74 -75 0
73 74 75 0
-76 -77 0
-76 -78 0
-77 -78 0
76 77 78 0
-79 -80 0
-79 -81 0
-80 -81 0
79 80 81 0
-82 -83 0
-82 -84 0
-83 -84 0
82 83 84 0
-85 -86 0
-85 -87 0
-86 -87 0
85 86 87 0
-88 -89 0
-88 -90 0
-89 -90 0
88 89 90 0
-91 -92 0
-91 -93 0
-92 -93 0
91 92 93 0
-94 -95 0
-94 -96 0
-95 -96 0
94 95 96 0
-97 -98 0
-97 -99 0
-98 -99 0
97 98 99 0
-100 -101 0
-100 -102 0
-101 -102 0
100 101 102 0
-103 -104 0
-103 -105 0
-104 -105 0
103 104 105 0
-106 -107 0
-106 -108 0
-107 -108 0
106 107 108 0
-109 -110 0
-109 -111 0
-110 -111 0
109 110 111 0
-112 -113 0
-112 -114 0
-113 -114 0
112 113 114 0
-115 -116 0
-115 -117 0
-116 -117 0
115 116 117 0
-118 -119 0
-118 -120 0
-119 -120 0
118 119 120 0
-121 -122 0
-121 -123 0
-122 -123 0
121 122 123 0
-124 -125 0
-124 -126 0
-125 -126 0
124 125 126 0
-127 -128 0
-127 -129 0
-128 -129 0
127 128 129 0
-130 -131 0
-130 -132 0
-131 -132 0
130 131 132 0
-133 -134 0
-133 -135 0
-134 -135 0
133 134 135 0
-136 -137 0
-136 -138 0
-137 -138 0
136 137 138 0
-139 -140 0
-139 -141 0
-140 -141 0
139 140 141 0
-142 -143 0
-142 -144 0
-143 -144 0
142 143 144 0
-145 -146 0
-145 -147 0
-146 -147 0
145 146 147 0
-148 -149 0
-148 -150 0
-149 -150 0
148 149 150 0
-151 -152 0
-151 -153 0
-152 -153 0
151 152 153 0
-154 -155 0
-154 -156 0
-155 -156 0
154 155 156 0
-157 -158 0
-157 -159 0
-158 -159 0
157 158 159 0
-160 -161 0
-160 -162 0
-161 -162 0
160 161 162 0
-163 -164 0
-163 -165 0
-164 -165 0
163 164 165 0
-166 -167 0
-166 -168 0
-167 -168 0
166 167 168 0
-169 -170 0
-169 -171 0
-170 -171 0
169 170 171 0
-172 -173 0
-172 -174 0
-173 -174 0
172 173 174 0
-175 -176 0
-175 -177 0
-176 -177 0
175 176 177 0
-178 -179 0
-178 -180 0
-179 -180 0
178 179 180 0
-181 -182 0
-181 -183 0
-182 -183 0
181 182 183 0
-184 -185 0
-184 -186 0
-185 -186 0
184 185 186 0
-187 -188 0
-187 -189 0
-188 -189 0
187 188 189 0
-190 -191 0
-190 -192 0
-191 -192 0
190 191 192 0
-193 -194 0
-193 -195 0
-194 -195 0
193 194 195 0
-196 -197 0
-196 -198 0
-197 -198 0
196 197 198 0
-199 -200 0
-199 -201 0
-200 -201 0
199 200 201 0
-202 -203 0
-202 -204 0
-203 -204 0
202 203 204 0
-205 -206 0
-205 -207 0
-206 -207 0
205 206 207 0
-208 -209 0
-208 -210 0
-209 -210 0
208 209 210 0
-211 -212 0
-211 -213 0
-212 -213 0
211 212 213 0
-214 -215 0
-214 -216 0
-215 -216 0
214 215 216 0
-217 -218 0
-217 -219 0
-218 -219 0
217 218 219 0
-220 -221 0
-220 -222 0
-221 -222 0
220 221 222 0
-223 -224 0
-223 -225 0
-224 -225 0
223 224 225 0
-226 -227 0
-226 -228 0
-227 -228 0
226 227 228 0
-229 -230 0
-229 -231 0
-230 -231 0
229 230 231 0
-232 -233 0
-232 -234 0
-233 -234 0
232 233 234 0
-235 -236 0
-235 -237 0
-236 -237 0
235 236 237 0
-238 -239 0
-238 -240 0
-239 -240 0
238 239 240 0
-241 -242 0
-241 -243 0
-242 -243 0
241 242 243 0
-244 -245 0
-244 -246 0
-245 -246 0
244 245 246 0
-247 -248 0
-247 -249 0
-248 -249 0
247 248 249 0
-250 -251 0
-250 -252 0
-251 -252 0
250 251 252 0
-253 -254 0
-253 -255 0
-254 -255 0
253 254 255 0
-256 -257 0
-256 -258 0
-257 -258 0
256 257 258 0
-259 -260 0
-259 -261 0
-260 -261 0
259 260 261 0
-262 -263 0
-262 -264 0
-263 -264 0
262 263 264 0
-265 -266 0
-265 -267 0
-266 -267 0
265 266 267 0
-268 -269 0
-268 -270 0
-269 -270 0
268 269 270 0
-271 -272 0
-271 -273 0
-272 -273 0
271 272 273 0
-274 -275 0
-274 -276 0
-275 -276 0
274 275 276 0
-277 -278 0
-277 -279 0
-278 -279 0
277 278 279 0
-280 -281 0
-280 -282 0
-281 -282 0
280 281 282 0
-283 -284 0
-283 -285 0
-284 -285 0
283 284 285 0
-286 -287 0
-286 -288 0
-287 -288 0
286 287 288 0
-289 -290 0
-289 -291 0
-290 -291 0
289 290 291 0
-292 -293 0
-292 -294 0
-293 -294 0
292 293 294 0
-295 -296 0
-295 -297 0
-296 -297 0
295 296 297 0
-298 -299 0
-298 -300 0
-299 -300 0
298 299 300 0
-301 -302 0
-301 -303 0
-302 -303 0
301 302 303 0
-304 -305 0
-304 -306 0
-305 -306 0
304 305 306 0
-307 -308 0
-307 -309 0
-308 -309 0
307 308 309 0
-310 -311 0
-310 -312 0
-311 -312 0
310 311 312 0
-313 -314 0
-313 -315 0
-314 -315 0
313 314 315 0
-316 -317 0
-316 -318 0
-317 -318 0
316 317 318 0
-319 -320 0
-319 -321 0
-320 -321 0
319 320 321 0
-322 -323 0
-322 -324 0
-323 -324 0
322 323 324 0
-325 -326 0
-325 -327 0
-326 -327 0
325 326 327 0
-328 -329 0
-328 -330 0
-329 -330 0
328 329 330 0
-331 -332 0
-331 -333 0
-332 -333 0
331 332 333 0
-334 -335 0
-334 -336 0
-335 -336 0
334 335 336 0
-337 -338 0
-337 -339 0
-338 -339 0
337 338 339 0
-340 -341 0
-340 -342 0
-341 -342 0
340 341 342 0
-343 -344 0
-343 -345 0
-344 -345 0
343 344 345 0
-346 -347 0
-346 -348 0
-347 -348 0
346 347 348 0
-349 -350 0
-349 -351 0
-350 -351 0
349 350 351 0
-352 -353 0
-352 -354 0
-353 -354 0
352 353 354 0
-355 -356 0
-355 -357 0
-356 -357 0
355 356 357 0
-358 -359 0
-358 -360 0
-359 -360 0
358 359 360 0
-361 -362 0
-361 -363 0
-362 -363 0
361 362 363 0
-364 -365 0
-364 -366 0
-365 -366 0
364 365 366 0
-367 -368 0
-367 -369 0
-368 -369 0
367 368 369 0
-370 -371 0
-370 -372 0
-371 -372 0
370 371 372 0
-373 -374 0
-373 -375 0
-374 -375 0
373 374 375 0
-376 -377 0
-376 -378 0
-377 -378 0
376 377 378 0
-379 -380 0
-379 -381 0
-380 -381 0
379 380 381 0
-382 -383 0
-382 -384 0
-383 -384 0
382 383 384 0
-385 -386 0
-385 -387 0
-386 -387 0
385 386 387 0
-388 -389 0
-388 -390 0
-389 -390 0
388 389 390 0
-391 -392 0
-391 -393 0
-392 -393 0
391 392 393 0
-394 -395 0
-394 -396 0
-395 -396 0
394 395 396 0
-397 -398 0
-397 -399 0
-398 -399 0
397 398 399 0
-400 -401 0
-400 -402 0
-401 -402 0
400 401 402 0
-403 -404 0
-403 -405 0
-404 -405 0
403 404 405 0
-406 -407 0
-406 -408 0
-407 -408 0
406 407 408 0
-409 -410 0
-409 -411 0
-410 -411 0
409 410 411 0
-412 -413 0
-412 -414 0
-413 -414 0
412 413 414 0
-415 -416 0
-415 -417 0
-416 -417 0
415 416 417 0
-418 -419 0
-418 -420 0
-419 -420 0
418 419 420 0
-421 -422 0
-421 -423 0
-422 -423 0
421 422 423 0
-424 -425 0
-424 -426 0
-425 -426 0
424 425 426 0
-427 -428 0
-427 -429 0
-428 -429 0
427 428 429 0
-430 -431 0
-430 -432 0
-431 -432 0
430 431 432 0
-433 -434 0
-433 -435 0
-434 -435 0
433 434 435 0
-436 -437 0
-436 -438 0
-437 -438 0
436 437 438 0
-439 -440 0
-439 -441 0
-440 -441 0
439 440 441 0
-442 -443 0
-442 -444 0
-443 -444 0
442 443 444 0
-445 -446 0
-445 -447 0
-446 -447 0
445 446 447 0
-448 -449 0
-448 -450 0
-449 -450 0
448 449 450 0
-451 -452 0
-451 -453 0
-452 -453 0
451 452 453 0
-454 -455 0
-454 -456 0
-455 -456 0
454 455 456 0
-457 -458 0
-457 -459 0
-458 -459 0
457 458 459 0
-460 -461 0
-460 -462 0
-461 -462 0
460 461 462 0
-463 -464 0
-463 -465 0
-464 -465 0
463 464 465 0
-466 -467 0
-466 -468 0
-467 -468 0
466 467 468 0
-469 -470 0
-469 -471 0
-470 -471 0
469 470 471 0
-472 -473 0
-472 -474 0
-473 -474 0
472 473 474 0
-475 -476 0
-475 -477 0
-476 -477 0
475 476 477 0
-478 -479 0
-478 -480 0
-479 -480 0
478 479 480 0
-481 -482 0
-481 -483 0
-482 -483 0
481 482 483 0
-484 -485 0
-484 -486 0
-485 -486 0
484 485 486 0
-487 -488 0
-487 -489 0
-488 -489 0
487 488 489 0
-490 -491 0
-490 -492 0
-491 -492 0
490 491 492 0
-493 -494 0
-493 -495 0
-494 -495 0
493 494 495 0
-496 -497 0
-496 -498 0
-497 -498 0
496 497 498 0
-499 -500 0
-499 -501 0
-500 -501 0
499 500 501 0
-502 -503 0
-502 -504 0
-503 -504 0
502 503 504 0
-505 -506 0
-505 -507 0
-506 -507 0
505 506 507 0
-508 -509 0
-508 -510 0
-509 -510 0
508 509 510 0
-511 -512 0
-511 -513 0
-512 -513 0
511 512 513 0
-514 -515 0
-514 -516 0
-515 -516 0
514 515 516 0
-517 -518 0
-517 -519 0
-518 -519 0
517 518 519 0
-520 -521 0
-520 -522 0
-521 -522 0
520 521 522 0
-523 -524 0
-523 -525 0
-524 -525 0
523 524 525 0
-301 -1 0
-302 -2 0
-303 -3 0
-304 -1 0
-305 -2 0
-306 -3 0
-37 -4 0
-38 -5 0
-39 -6 0
-58 -4 0
-59 -5 0
-60 -6 0
-283 -4 0
-284 -5 0
-285 -6 0
-433 -4 0
-434 -5 0
-435 -6 0
-13 -7 0
-14 -8 0
-15 -9 0
-43 -7 0
-44 -8 0
-45 -9 0
-121 -7 0
-122 -8 0
-123 -9 0
-127 -7 0
-128 -8 0
-129 -9 0
-181 -7 0
-182 -8 0
-183 -9 0
-223 -7 0
-224 -8 0
-225 -9 0
-340 -7 0
-341 -8 0
-342 -9 0
-61 -10 0
-62 -11 0
-63 -12 0
-67 -10 0
-68 -11 0
-69 -12 0
-124 -10 0
-125 -11 0
-126 -12 0
-349 -10 0
-350 -11 0
-351 -12 0
-415 -10 0
-416 -11 0
-417 -12 0
-451 -10 0
-452 -11 0
-453 -12 0
-70 -13 0
-71 -14 0
-72 -15 0
-97 -13 0
-98 -14 0
-99 -15 0
-142 -13 0
-143 -14 0
-144 -15 0
-493 -13 0
-494 -14 0
-495 -15 0
-175 -16 0
-176 -17 0
-177 -18 0
-229 -16 0
-230 -17 0
-231 -18 0
-274 -16 0
-275 -17 0
-276 -18 0
-403 -16 0
-404 -17 0
-405 -18 0
-409 -16 0
-410 -17 0
-411 -18 0
-418 -16 0
-419 -17 0
-420 -18 0
-460 -16 0
-461 -17 0
-462 -18 0
-28 -19 0
-29 -20 0
-30 -21 0
-385 -19 0
-386 -20 0
-387 -21 0
-391 -19 0
-392 -20 0
-393 -21 0
-40 -22 0
-41 -23 0
-42 -24 0
-178 -22 0
-179 -23 0
-180 -24 0
-187 -22 0
-188 -23 0
-189 -24 0
-304 -22 0
-305 -23 0
-306 -24 0
-511 -22 0
-512 -23 0
-513 -24 0
-361 -25 0
-362 -26 0
-363 -27 0
-439 -25 0
-440 -26 0
-441 -27 0
-502 -25 0
-503 -26 0
-504 -27 0
-115 -28 0
-116 -29 0
-117 -30 0
-121 -28 0
-122 -29 0
-123 -30 0
-181 -28 0
-182 -29 0
-183 -30 0
-292 -28 0
-293 -29 0
-294 -30 0
-442 -28 0
-443 -29 0
-444 -30 0
-520 -28 0
-521 -29 0
-522 -30 0
-58 -31 0
-59 -32 0
-60 -33 0
-145 -31 0
-146 -32 0
-147 -33 0
-208 -31 0
-209 -32 0
-210 -33 0
-214 -31 0
-215 -32 0
-216 -33 0
-331 -31 0
-332 -32 0
-333 -33 0
-382 -31 0
-383 -32 0
-384 -33 0
-457 -31 0
-458 -32 0
-459 -33 0
-481 -31 0
-482 -32 0
-483 -33 0
-151 -34 0
-152 -35 0
-153 -36 0
-184 -34 0
-185 -35 0
-186 -36 0
-46 -37 0
-47 -38 0
-48 -39 0
-253 -37 0
-254 -38 0
-255 -39 0
-142 -40 0
-143 -41 0
-144 -42 0
-208 -40 0
-209 -41 0
-210 -42 0
-319 -40 0
-320 -41 0
-321 -42 0
-331 -40 0
-332 -41 0
-333 -42 0
-340 -40 0
-341 -41 0
-342 -42 0
-433 -40 0
-434 -41 0
-435 -42 0
-514 -40 0
-515 -41 0
-516 -42 0
-241 -43 0
-242 -44 0
-243 -45 0
-406 -43 0
-407 -44 0
-408 -45 0
-109 -46 0
-110 -47 0
-111 -48 0
-178 -46 0
-179 -47 0
-180 -48 0
-208 -46 0
-209 -47 0
-210 -48 0
-283 -46 0
-284 -47 0
-285 -48 0
-301 -46 0
-302 -47 0
-303 -48 0
-496 -46 0
-497 -47 0
-498 -48 0
-88 -49 0
-89 -50 0
-90 -51 0
-112 -49 0
-113 -50 0
-114 -51 0
-466 -49 0
-467 -50 0
-468 -51 0
-118 -52 0
-119 -53 0
-120 -54 0
-145 -52 0
-146 -53 0
-147 -54 0
-352 -52 0
-353 -53 0
-354 -54 0
-454 -52 0
-455 -53 0
-456 -54 0
-88 -55 0
-89 -56 0
-90 -57 0
-157 -55 0
-158 -56 0
-159 -57 0
-193 -55 0
-194 -56 0
-195 -57 0
-418 -55 0
-419 -56 0
-420 -57 0
-76 -58 0
-77 -59 0
-78 -60 0
-79 -58 0
-80 -59 0
-81 -60 0
-394 -58 0
-395 -59 0
-396 -60 0
-415 -58 0
-416 -59 0
-417 -60 0
-421 -58 0
-422 -59 0
-423 -60 0
-127 -61 0
-128 -62 0
-129 -63 0
-145 -61 0
-146 -62 0
-147 -63 0
-157 -61 0
-158 -62 0
-159 -63 0
-271 -64 0
-272 -65 0
-273 -66 0
-277 -64 0
-278 -65 0
-279 -66 0
-367 -64 0
-368 -65 0
-369 -66 0
-385 -64 0
-386 -65 0
-387 -66 0
-415 -64 0
-416 -65 0
-417 -66 0
-505 -64 0
-506 -65 0
-507 -66 0
-118 -67 0
-119 -68 0
-120 -69 0
-187 -67 0
-188 -68 0
-189 -69 0
-232 -67 0
-233 -68 0
-234 -69 0
-361 -67 0
-362 -68 0
-363 -69 0
-484 -67 0
-485 -68 0
-486 -69 0
-502 -67 0
-503 -68 0
-504 -69 0
-202 -70 0
-203 -71 0
-204 -72 0
-220 -70 0
-221 -71 0
-222 -72 0
-358 -70 0
-359 -71 0
-360 -72 0
-337 -73 0
-338 -74 0
-339 -75 0
-427 -76 0
-428 -77 0
-429 -78 0
-487 -76 0
-488 -77 0
-489 -78 0
-289 -79 0
-290 -80 0
-291 -81 0
-337 -79 0
-338 -80 0
-339 -81 0
-463 -79 0
-464 -80 0
-465 -81 0
-229 -82 0
-230 -83 0
-231 -84 0
-265 -82 0
-266 -83 0
-267 -84 0
-277 -82 0
-278 -83 0
-279 -84 0
-409 -82 0
-410 -83 0
-411 -84 0
-505 -82 0
-506 -83 0
-507 -84 0
-523 -82 0
-524 -83 0
-525 -84 0
-172 -85 0
-173 -86 0
-174 -87 0
-172 -88 0
-173 -89 0
-174 -90 0
-316 -88 0
-317 -89 0
-318 -90 0
-367 -88 0
-368 -89 0
-369 -90 0
-388 -88 0
-389 -89 0
-390 -90 0
-514 -88 0
-515 -89 0
-516 -90 0
-121 -91 0
-122 -92 0
-123 -93 0
-379 -91 0
-380 -92 0
-381 -93 0
-121 -94 0
-122 -95 0
-123 -96 0
-154 -94 0
-155 -95 0
-156 -96 0
-175 -94 0
-176 -95 0
-177 -96 0
-220 -94 0
-221 -95 0
-222 -96 0
-244 -94 0
-245 -95 0
-246 -96 0
-313 -94 0
-314 -95 0
-315 -96 0
-136 -97 0
-137 -98 0
-138 -99 0
-178 -97 0
-179 -98 0
-180 -99 0
-211 -97 0
-212 -98 0
-213 -99 0
-241 -97 0
-242 -98 0
-243 -99 0
-367 -97 0
-368 -98 0
-369 -99 0
-205 -100 0
-206 -101 0
-207 -102 0
-334 -100 0
-335 -101 0
-336 -102 0
-337 -100 0
-338 -101 0
-339 -102 0
-487 -100 0
-488 -101 0
-489 -102 0
-130 -103 0
-131 -104 0
-132 -105 0
-223 -103 0
-224 -104 0
-225 -105 0
-316 -103 0
-317 -104 0
-318 -105 0
-139 -106 0
-140 -107 0
-141 -108 0
-346 -109 0
-347 -110 0
-348 -111 0
-403 -109 0
-404 -110 0
-405 -111 0
-274 -112 0
-275 -113 0
-276 -114 0
-307 -112 0
-308 -113 0
-309 -114 0
-376 -112 0
-377 -113 0
-378 -114 0
-364 -115 0
-365 -116 0
-366 -117 0
-421 -115 0
-422 -116 0
-423 -117 0
-265 -118 0
-266 -119 0
-267 -120 0
-511 -118 0
-512 -119 0
-513 -120 0
-520 -118 0
-521 -119 0
-522 -120 0
-262 -121 0
-263 -122 0
-264 -123 0
-397 -121 0
-398 -122 0
-399 -123 0
-517 -121 0
-518 -122 0
-519 -123 0
-148 -124 0
-149 -125 0
-150 -126 0
-178 -124 0
-179 -125 0
-180 -126 0
-358 -124 0
-359 -125 0
-360 -126 0
-475 -124 0
-476 -125 0
-477 -126 0
-157 -127 0
-158 -128 0
-159 -129 0
-184 -127 0
-185 -128 0
-186 -129 0
-301 -127 0
-302 -128 0
-303 -129 0
-355 -127 0
-356 -128 0
-357 -129 0
-385 -127 0
-386 -128 0
-387 -129 0
-196 -130 0
-197 -131 0
-198 -132 0
-292 -130 0
-293 -131 0
-294 -132 0
-271 -133 0
-272 -134 0
-273 -135 0
-304 -133 0
-305 -134 0
-306 -135 0
-379 -133 0
-380 -134 0
-381 -135 0
-421 -133 0
-422 -134 0
-423 -135 0
-217 -136 0
-218 -137 0
-219 -138 0
-235 -136 0
-236 -137 0
-237 -138 0
-244 -136 0
-245 -137 0
-246 -138 0
-370 -136 0
-371 -137 0
-372 -138 0
-373 -136 0
-374 -137 0
-375 -138 0
-406 -136 0
-407 -137 0
-408 -138 0
-199 -142 0
-200 -143 0
-201 -144 0
-343 -142 0
-344 -143 0
-345 -144 0
-154 -145 0
-155 -146 0
-156 -147 0
-298 -145 0
-299 -146 0
-300 -147 0
-310 -145 0
-311 -146 0
-312 -147 0
-445 -145 0
-446 -146 0
-447 -147 0
-496 -145 0
-497 -146 0
-498 -147 0
-157 -148 0
-158 -149 0
-159 -150 0
-331 -148 0
-332 -149 0
-333 -150 0
-382 -148 0
-383 -149 0
-384 -150 0
-439 -148 0
-440 -149 0
-441 -150 0
-457 -148 0
-458 -149 0
-459 -150 0
-472 -148 0
-473 -149 0
-474 -150 0
-499 -148 0
-500 -149 0
-501 -150 0
-190 -151 0
-191 -152 0
-192 -153 0
-334 -151 0
-335 -152 0
-336 -153 0
-466 -151 0
-467 -152 0
-468 -153 0
-211 -154 0
-212 -155 0
-213 -156 0
-244 -154 0
-245 -155 0
-246 -156 0
-403 -154 0
-404 -155 0
-405 -156 0
-409 -154 0
-410 -155 0
-411 -156 0
-169 -157 0
-170 -158 0
-171 -159 0
-205 -157 0
-206 -158 0
-207 -159 0
-241 -157 0
-242 -158 0
-243 -159 0
-376 -160 0
-377 -161 0
-378 -162 0
-421 -160 0
-422 -161 0
-423 -162 0
-469 -160 0
-470 -161 0
-471 -162 0
-514 -160 0
-515 -161 0
-516 -162 0
-178 -163 0
-179 -164 0
-180 -165 0
-223 -163 0
-224 -164 0
-225 -165 0
-280 -163 0
-281 -164 0
-282 -165 0
-289 -163 0
-290 -164 0
-291 -165 0
-292 -163 0
-293 -164 0
-294 -165 0
-436 -163 0
-437 -164 0
-438 -165 0
-256 -166 0
-257 -167 0
-258 -168 0
-325 -166 0
-326 -167 0
-327 -168 0
-355 -166 0
-356 -167 0
-357 -168 0
-397 -166 0
-398 -167 0
-399 -168 0
-421 -166 0
-422 -167 0
-423 -168 0
-430 -166 0
-431 -167 0
-432 -168 0
-199 -169 0
-200 -170 0
-201 -171 0
-394 -169 0
-395 -170 0
-396 -171 0
-406 -169 0
-407 -170 0
-408 -171 0
-217 -172 0
-218 -173 0
-219 -174 0
-244 -172 0
-245 -173 0
-246 -174 0
-463 -172 0
-464 -173 0
-465 -174 0
-466 -172 0
-467 -173 0
-468 -174 0
-190 -175 0
-191 -176 0
-192 -177 0
-433 -175 0
-434 -176 0
-435 -177 0
-460 -175 0
-461 -176 0
-462 -177 0
-499 -175 0
-500 -176 0
-501 -177 0
-352 -178 0
-353 -179 0
-354 -180 0
-280 -181 0
-281 -182 0
-282 -183 0
-289 -181 0
-290 -182 0
-291 -183 0
-340 -181 0
-341 -182 0
-342 -183 0
-466 -181 0
-467 -182 0
-468 -183 0
-358 -184 0
-359 -185 0
-360 -186 0
-424 -184 0
-425 -185 0
-426 -186 0
-469 -184 0
-470 -185 0
-471 -186 0
-298 -187 0
-299 -188 0
-300 -189 0
-310 -187 0
-311 -188 0
-312 -189 0
-346 -187 0
-347 -188 0
-348 -189 0
-466 -187 0
-467 -188 0
-468 -189 0
-427 -190 0
-428 -191 0
-429 -192 0
-481 -190 0
-482 -191 0
-483 -192 0
-208 -193 0
-209 -194 0
-210 -195 0
-316 -193 0
-317 -194 0
-318 -195 0
-400 -193 0
-401 -194 0
-402 -195 0
-439 -193 0
-440 -194 0
-441 -195 0
-463 -193 0
-464 -194 0
-465 -195 0
-343 -196 0
-344 -197 0
-345 -198 0
-265 -199 0
-266 -200 0
-267 -201 0
-274 -199 0
-275 -200 0
-276 -201 0
-448 -199 0
-449 -200 0
-450 -201 0
-217 -202 0
-218 -203 0
-219 -204 0
-406 -202 0
-407 -203 0
-408 -204 0
-472 -202 0
-473 -203 0
-474 -204 0
-286 -205 0
-287 -206 0
-288 -207 0
-286 -208 0
-287 -209 0
-288 -210 0
-307 -208 0
-308 -209 0
-309 -210 0
-355 -208 0
-356 -209 0
-357 -210 0
-379 -211 0
-380 -212 0
-381 -213 0
-460 -211 0
-461 -212 0
-462 -213 0
-505 -211 0
-506 -212 0
-507 -213 0
-514 -211 0
-515 -212 0
-516 -213 0
-361 -214 0
-362 -215 0
-363 -216 0
-364 -214 0
-365 -215 0
-366 -216 0
-286 -217 0
-287 -218 0
-288 -219 0
-319 -217 0
-320 -218 0
-321 -219 0
-412 -217 0
-413 -218 0
-414 -219 0
-436 -217 0
-437 -218 0
-438 -219 0
-292 -223 0
-293 -224 0
-294 -225 0
-376 -223 0
-377 -224 0
-378 -225 0
-382 -223 0
-383 -224 0
-384 -225 0
-394 -223 0
-395 -224 0
-396 -225 0
-508 -223 0
-509 -224 0
-510 -225 0
-256 -226 0
-257 -227 0
-258 -228 0
-277 -226 0
-278 -227 0
-279 -228 0
-337 -226 0
-338 -227 0
-339 -228 0
-481 -226 0
-482 -227 0
-483 -228 0
-484 -226 0
-485 -227 0
-486 -228 0
-496 -226 0
-497 -227 0
-498 -228 0
-280 -229 0
-281 -230 0
-282 -231 0
-337 -229 0
-338 -230 0
-339 -231 0
-403 -229 0
-404 -230 0
-405 -231 0
-415 -229 0
-416 -230 0
-417 -231 0
-247 -232 0
-248 -233 0
-249 -234 0
-523 -232 0
-524 -233 0
-525 -234 0
-259 -235 0
-260 -236 0
-261 -237 0
-319 -235 0
-320 -236 0
-321 -237 0
-328 -235 0
-329 -236 0
-330 -237 0
-433 -235 0
-434 -236 0
-435 -237 0
-253 -238 0
-254 -239 0
-255 -240 0
-310 -238 0
-311 -239 0
-312 -240 0
-355 -238 0
-356 -239 0
-357 -240 0
-517 -238 0
-518 -239 0
-519 -240 0
-268 -241 0
-269 -242 0
-270 -243 0
-313 -241 0
-314 -242 0
-315 -243 0
-331 -241 0
-332 -242 0
-333 -243 0
-409 -241 0
-410 -242 0
-411 -243 0
-517 -241 0
-518 -242 0
-519 -243 0
-250 -244 0
-251 -245 0
-252 -246 0
-268 -244 0
-269 -245 0
-270 -246 0
-322 -244 0
-323 -245 0
-324 -246 0
-370 -244 0
-371 -245 0
-372 -246 0
-268 -247 0
-269 -248 0
-270 -249 0
-298 -247 0
-299 -248 0
-300 -249 0
-331 -247 0
-332 -248 0
-333 -249 0
-370 -247 0
-371 -248 0
-372 -249 0
-508 -247 0
-509 -248 0
-510 -249 0
-346 -250 0
-347 -251 0
-348 -252 0
-400 -250 0
-401 -251 0
-402 -252 0
-433 -250 0
-434 -251 0
-435 -252 0
-496 -250 0
-497 -251 0
-498 -252 0
-436 -253 0
-437 -254 0
-438 -255 0
-475 -253 0
-476 -254 0
-477 -255 0
-307 -256 0
-308 -257 0
-309 -258 0
-343 -256 0
-344 -257 0
-345 -258 0
-373 -256 0
-374 -257 0
-375 -258 0
-454 -256 0
-455 -257 0
-456 -258 0
-313 -259 0
-314 -260 0
-315 -261 0
-481 -259 0
-482 -260 0
-483 -261 0
-511 -259 0
-512 -260 0
-513 -261 0
-343 -262 0
-344 -263 0
-345 -264 0
-298 -265 0
-299 -266 0
-300 -267 0
-352 -265 0
-353 -266 0
-354 -267 0
-418 -265 0
-419 -266 0
-420 -267 0
-502 -268 0
-503 -269 0
-504 -270 0
-355 -271 0
-356 -272 0
-357 -273 0
-406 -271 0
-407 -272 0
-408 -273 0
-418 -271 0
-419 -272 0
-420 -273 0
-448 -271 0
-449 -272 0
-450 -273 0
-451 -271 0
-452 -272 0
-453 -273 0
-331 -274 0
-332 -275 0
-333 -276 0
-448 -274 0
-449 -275 0
-450 -276 0
-523 -274 0
-524 -275 0
-525 -276 0
-358 -277 0
-359 -278 0
-360 -279 0
-316 -280 0
-317 -281 0
-318 -282 0
-322 -280 0
-323 -281 0
-324 -282 0
-508 -280 0
-509 -281 0
-510 -282 0
-361 -283 0
-362 -284 0
-363 -285 0
-328 -286 0
-329 -287 0
-330 -288 0
-310 -289 0
-311 -290 0
-312 -291 0
-343 -289 0
-344 -290 0
-345 -291 0
-400 -289 0
-401 -290 0
-402 -291 0
-427 -292 0
-428 -293 0
-429 -294 0
-484 -292 0
-485 -293 0
-486 -294 0
-313 -295 0
-314 -296 0
-315 -297 0
-412 -295 0
-413 -296 0
-414 -297 0
-391 -298 0
-392 -299 0
-393 -300 0
-424 -298 0
-425 -299 0
-426 -300 0
-373 -301 0
-374 -302 0
-375 -303 0
-424 -301 0
-425 -302 0
-426 -303 0
-520 -301 0
-521 -302 0
-522 -303 0
-400 -316 0
-401 -317 0
-402 -318 0
-496 -316 0
-497 -317 0
-498 -318 0
-322 -319 0
-323 -320 0
-324 -321 0
-466 -322 0
-467 -323 0
-468 -324 0
-517 -322 0
-518 -323 0
-519 -324 0
-367 -328 0
-368 -329 0
-369 -330 0
-415 -328 0
-416 -329 0
-417 -330 0
-415 -331 0
-416 -332 0
-417 -333 0
-352 -334 0
-353 -335 0
-354 -336 0
-382 -340 0
-383 -341 0
-384 -342 0
-364 -343 0
-365 -344 0
-366 -345 0
-388 -346 0
-389 -347 0
-390 -348 0
-460 -346 0
-461 -347 0
-462 -348 0
-505 -346 0
-506 -347 0
-507 -348 0
-364 -349 0
-365 -350 0
-366 -351 0
-439 -349 0
-440 -350 0
-441 -351 0
-415 -352 0
-416 -353 0
-417 -354 0
-493 -355 0
-494 -356 0
-495 -357 0
-499 -355 0
-500 -356 0
-501 -357 0
-484 -358 0
-485 -359 0
-486 -360 0
-421 -361 0
-422 -362 0
-423 -363 0
-478 -361 0
-479 -362 0
-480 -363 0
-523 -361 0
-524 -362 0
-525 -363 0
-388 -364 0
-389 -365 0
-390 -366 0
-439 -367 0
-440 -368 0
-441 -369 0
-511 -367 0
-512 -368 0
-513 -369 0
-400 -370 0
-401 -371 0
-402 -372 0
-445 -373 0
-446 -374 0
-447 -375 0
-484 -373 0
-485 -374 0
-486 -375 0
-433 -376 0
-434 -377 0
-435 -378 0
-514 -376 0
-515 -377 0
-516 -378 0
-439 -379 0
-440 -380 0
-441 -381 0
-436 -385 0
-437 -386 0
-438 -387 0
-451 -385 0
-452 -386 0
-453 -387 0
-469 -385 0
-470 -386 0
-471 -387 0
-469 -388 0
-470 -389 0
-471 -390 0
-409 -394 0
-410 -395 0
-411 -396 0
-508 -394 0
-509 -395 0
-510 -396 0
-517 -394 0
-518 -395 0
-519 -396 0
-478 -397 0
-479 -398 0
-480 -399 0
-511 -397 0
-512 -398 0
-513 -399 0
-475 -403 0
-476 -404 0
-477 -405 0
-505 -403 0
-506 -404 0
-507 -405 0
-481 -406 0
-482 -407 0
-483 -408 0
-436 -415 0
-437 -416 0
-438 -417 0
-460 -418 0
-461 -419 0
-462 -420 0
-460 -421 0
-461 -422 0
-462 -423 0
-445 -424 0
-446 -425 0
-447 -426 0
-442 -427 0
-443 -428 0
-444 -429 0
-454 -427 0
-455 -428 0
-456 -429 0
-448 -439 0
-449 -440 0
-450 -441 0
-454 -439 0
-455 -440 0
-456 -441 0
-457 -445 0
-458 -446 0
-459 -447 0
-496 -445 0
-497 -446 0
-498 -447 0
-451 -448 0
-452 -449 0
-453 -450 0
-466 -463 0
-467 -464 0
-468 -465 0
-502 -463 0
-503 -464 0
-504 -465 0
-493 -469 0
-494 -470 0
-495 -471 0
-478 -475 0
-479 -476 0
-480 -477 0
-508 -484 0
-509 -485 0
-510 -486 0
-502 -487 0
-503 -488 0
-504 -489 0
-520 -505 0
-521 -506 0
-522 -507 0
